300
400 400
1 280 773
2 280 952
3 280 568
4 280 6
5 279 776
6 279 181
7 278 392
8 278 55
9 277 711
10 277 1
11 277 659
12 276 663
13 276 850
14 274 914
15 273 48
16 272 297
17 272 791
18 271 827
19 270 417
20 270 234
21 269 715
22 269 497
23 268 179
24 268 531
25 267 632
26 266 687
27 265 990
28 264 775
29 263 693
30 262 816
31 261 343
32 261 809
33 260 162
34 260 151
35 260 461
36 258 450
37 256 826
38 256 292
39 255 453
40 255 911
41 255 608
42 253 540
43 250 275
44 250 601
45 250 429
46 250 300
47 248 891
48 248 763
49 248 469
50 247 99
51 247 604
52 247 27
53 247 161
54 246 918
55 245 209
56 243 159
57 242 399
58 242 346
59 241 289
60 241 372
61 240 477
62 240 586
63 240 65
64 240 866
65 239 148
66 239 221
67 238 712
68 237 372
69 237 129
70 236 4
71 235 422
72 235 389
73 234 916
74 234 979
75 233 272
76 233 192
77 233 676
78 232 820
79 230 141
80 230 708
81 230 956
82 229 396
83 229 193
84 228 485
85 228 1
86 228 446
87 228 323
88 227 469
89 226 500
90 225 683
91 224 359
92 224 415
93 221 773
94 220 980
95 219 856
96 218 692
97 217 445
98 217 428
99 217 302
100 214 826
101 214 372
102 214 270
103 212 849
104 212 527
105 212 512
106 212 66
107 211 468
108 211 724
109 211 253
110 210 928
111 208 216
112 203 738
113 203 801
114 203 495
115 202 947
116 202 550
117 201 263
118 201 903
119 201 351
120 201 41
121 200 329
122 200 961
123 200 455
124 199 222
125 199 824
126 199 244
127 197 721
128 196 840
129 194 851
130 193 886
131 192 550
132 192 26
133 190 919
134 188 586
135 188 374
136 187 637
137 187 169
138 186 604
139 185 345
140 185 737
141 185 226
142 185 426
143 184 236
144 184 987
145 183 864
146 182 343
147 182 852
148 182 973
149 182 180
150 180 289
151 180 763
152 180 126
153 176 868
154 175 146
155 175 32
156 175 481
157 174 652
158 173 313
159 173 319
160 172 437
161 171 620
162 171 427
163 169 389
164 168 252
165 168 143
166 167 165
167 167 821
168 164 459
169 164 825
170 164 803
171 163 607
172 162 16
173 162 414
174 161 527
175 160 179
176 160 427
177 158 803
178 158 992
179 157 542
180 157 616
181 157 761
182 156 771
183 155 497
184 155 135
185 155 57
186 155 106
187 154 524
188 153 402
189 152 805
190 151 877
191 151 69
192 150 812
193 150 569
194 148 620
195 148 472
196 147 201
197 146 747
198 145 392
199 145 273
200 143 831
201 140 422
202 140 476
203 139 216
204 139 329
205 137 174
206 137 380
207 136 974
208 136 100
209 135 60
210 135 221
211 134 8
212 134 72
213 133 55
214 132 181
215 132 844
216 131 497
217 131 741
218 129 697
219 128 232
220 128 592
221 126 434
222 126 15
223 126 976
224 125 131
225 125 789
226 124 430
227 124 902
228 121 697
229 119 295
230 118 543
231 118 127
232 118 172
233 118 166
234 117 57
235 116 879
236 116 569
237 116 642
238 115 355
239 115 379
240 114 525
241 114 878
242 112 800
243 112 407
244 111 85
245 111 508
246 111 233
247 111 416
248 110 38
249 110 413
250 109 243
251 109 201
252 109 227
253 108 60
254 107 683
255 107 988
256 105 624
257 105 352
258 104 877
259 104 315
260 102 72
261 102 745
262 102 287
263 101 811
264 101 455
265 101 31
266 101 761
267 100 805
268 100 871
269 99 979
270 99 59
271 98 560
272 98 433
273 98 279
274 97 729
275 97 627
276 97 602
277 96 308
278 96 944
279 92 675
280 91 416
281 90 687
282 89 150
283 89 301
284 88 871
285 88 484
286 88 544
287 88 478
288 87 218
289 87 82
290 87 622
291 85 26
292 85 993
293 85 750
294 84 341
295 84 6
296 83 289
297 83 51
298 82 63
299 81 687
300 80 619
